c "459773.clq"
p edge 120 464
e 1 5
e 1 6
e 1 8
e 1 17
e 1 20
e 1 27
e 1 39
e 1 43
e 1 51
e 1 53
e 1 57
e 1 58
e 1 59
e 1 61
e 1 72
e 1 76
e 1 93
e 1 109
e 1 120
e 2 5
e 2 6
e 2 7
e 2 9
e 2 10
e 2 13
e 2 19
e 2 31
e 2 57
e 2 86
e 2 92
e 2 93
e 3 5
e 3 7
e 3 8
e 3 10
e 3 11
e 3 12
e 3 21
e 3 32
e 3 41
e 3 50
e 3 54
e 3 63
e 3 72
e 3 80
e 3 81
e 3 89
e 3 91
e 3 98
e 3 110
e 3 118
e 4 5
e 4 6
e 4 7
e 4 8
e 4 9
e 4 10
e 4 13
e 4 14
e 4 15
e 4 18
e 4 19
e 4 22
e 4 28
e 4 31
e 4 35
e 4 37
e 4 39
e 4 43
e 4 48
e 4 63
e 4 64
e 4 69
e 4 70
e 4 75
e 4 76
e 4 77
e 4 79
e 4 82
e 4 86
e 4 96
e 4 100
e 4 101
e 4 116
e 4 120
e 5 6
e 5 8
e 5 11
e 5 16
e 5 21
e 5 24
e 5 28
e 5 34
e 5 41
e 5 54
e 5 62
e 5 67
e 5 86
e 5 104
e 5 113
e 5 116
e 5 117
e 5 118
e 6 7
e 6 9
e 6 11
e 6 12
e 6 15
e 6 16
e 6 17
e 6 20
e 6 23
e 6 24
e 6 30
e 6 38
e 6 44
e 6 53
e 6 55
e 6 56
e 6 62
e 6 66
e 6 67
e 6 77
e 6 101
e 6 119
e 7 9
e 7 10
e 7 14
e 7 15
e 7 17
e 7 19
e 7 23
e 7 24
e 7 26
e 7 29
e 7 33
e 7 36
e 7 39
e 7 43
e 7 56
e 7 60
e 7 72
e 7 74
e 7 95
e 7 97
e 7 102
e 7 112
e 7 114
e 8 12
e 8 13
e 8 14
e 8 18
e 8 20
e 8 26
e 8 28
e 8 29
e 8 31
e 8 36
e 8 41
e 8 48
e 8 50
e 8 53
e 8 67
e 8 76
e 8 79
e 8 83
e 8 85
e 8 87
e 8 90
e 8 98
e 8 105
e 8 115
e 9 12
e 9 13
e 9 15
e 9 22
e 9 23
e 9 25
e 9 27
e 9 33
e 9 35
e 9 44
e 9 47
e 9 49
e 9 52
e 9 58
e 9 59
e 9 60
e 9 65
e 9 68
e 9 76
e 9 78
e 9 79
e 9 80
e 9 81
e 9 88
e 9 99
e 9 106
e 9 113
e 10 11
e 10 16
e 10 19
e 10 22
e 10 25
e 10 26
e 10 32
e 10 36
e 10 38
e 10 40
e 10 46
e 10 54
e 10 57
e 10 97
e 10 98
e 11 23
e 11 40
e 11 70
e 11 92
e 11 96
e 11 108
e 11 115
e 12 14
e 12 16
e 12 24
e 12 29
e 12 52
e 12 55
e 12 60
e 12 62
e 12 74
e 12 82
e 12 83
e 12 97
e 12 101
e 12 103
e 12 112
e 13 21
e 13 30
e 13 42
e 13 49
e 13 94
e 13 115
e 13 119
e 14 17
e 14 27
e 14 34
e 14 47
e 14 53
e 14 106
e 14 108
e 15 18
e 15 20
e 15 22
e 15 46
e 15 91
e 16 36
e 16 69
e 16 84
e 17 18
e 17 28
e 17 30
e 17 35
e 17 42
e 17 45
e 17 73
e 17 95
e 17 117
e 18 25
e 18 39
e 18 77
e 19 21
e 19 35
e 19 37
e 19 48
e 19 50
e 19 52
e 19 56
e 19 99
e 19 107
e 19 109
e 20 47
e 20 120
e 21 25
e 21 33
e 21 47
e 21 61
e 21 80
e 21 85
e 21 92
e 21 98
e 21 99
e 21 102
e 21 120
e 22 27
e 22 38
e 22 44
e 22 52
e 22 54
e 22 57
e 23 26
e 23 71
e 23 103
e 23 111
e 24 30
e 24 32
e 24 46
e 24 55
e 24 63
e 24 77
e 24 94
e 24 95
e 25 45
e 25 50
e 25 58
e 25 94
e 25 106
e 26 29
e 26 33
e 26 38
e 26 41
e 26 49
e 26 51
e 26 113
e 27 34
e 27 60
e 27 73
e 27 101
e 27 107
e 28 34
e 28 73
e 28 75
e 29 32
e 29 37
e 29 64
e 29 89
e 30 31
e 30 46
e 30 55
e 30 65
e 30 111
e 31 37
e 31 40
e 31 100
e 31 104
e 33 43
e 33 59
e 33 61
e 33 70
e 33 88
e 33 96
e 33 102
e 33 108
e 34 91
e 34 109
e 35 42
e 35 44
e 35 80
e 35 89
e 35 94
e 35 95
e 35 110
e 36 40
e 36 71
e 36 81
e 37 42
e 37 59
e 37 71
e 37 81
e 37 82
e 37 84
e 38 85
e 38 93
e 38 114
e 39 68
e 40 45
e 40 78
e 40 117
e 41 48
e 41 51
e 41 66
e 42 45
e 42 69
e 42 87
e 42 89
e 43 56
e 43 66
e 43 83
e 43 88
e 44 90
e 45 49
e 45 118
e 47 84
e 48 66
e 48 70
e 48 74
e 48 75
e 49 51
e 49 61
e 49 74
e 49 83
e 49 96
e 50 114
e 51 64
e 51 87
e 51 104
e 52 105
e 52 110
e 53 71
e 53 82
e 53 90
e 54 67
e 55 58
e 56 62
e 56 65
e 56 78
e 57 64
e 57 105
e 58 78
e 58 111
e 59 75
e 59 107
e 61 63
e 61 68
e 61 69
e 63 65
e 63 119
e 64 68
e 65 84
e 65 85
e 65 86
e 65 88
e 65 109
e 66 72
e 66 92
e 66 108
e 66 112
e 67 113
e 69 73
e 69 79
e 72 118
e 74 97
e 74 102
e 74 105
e 74 115
e 75 107
e 76 91
e 82 104
e 84 93
e 85 116
e 86 87
e 86 106
e 86 116
e 87 90
e 87 114
e 87 117
e 89 119
e 90 99
e 91 111
e 93 100
e 93 112
e 94 110
e 98 103
e 99 100
e 101 103
